50 4
44 102 52 28 89 80 95 99 59 50 59 53 82 78 30 28 74 100 42 28 68 30 101 90 81 52 100 63 81 31 97 92 57 46 29 59 68 98 70 48 52 44 73 96 44 69 96 32 66 34
62 105 62 44 104 77 76 98 68 43 56 38 110 74 38 40 65 87 57 35 82 26 93 86 65 58 109 62 81 35 92 83 35 41 37 70 64 72 66 53 44 37 79 94 21 73 92 24 66 29
45 94 64 33 101 81 78 75 81 54 72 56 96 79 36 36 63 92 56 26 76 28 113 76 72 53 105 48 99 29 94 92 45 38 25 59 91 89 87 34 57 52 97 101 28 72 84 41 53 40
70 110 73 39 83 72 74 99 75 47 83 43 88 87 37 29 64 108 53 30 77 48 95 88 78 37 97 49 93 24 91 64 34 36 19 61 91 96 66 38 48 47 72 106 19 76 87 37 68 36
